results/res_prop_muc/res_Cimatti_mathsat_cores/QF_UF/PEQ012_size5.smt.smt2.out

real	1m16.072s
user	1m15.493s
sys	0m0.552s
