results/res_prop_muc/res_Cimatti_mathsat_cores/QF_UF/PEQ012_size5.smt.smt2.res
unsat
( _c0
  _c1
  _c10
  _c101
  _c102
  _c103
  _c104
  _c107
  _c108
  _c11
  _c110
  _c111
  _c112
  _c12
  _c120
  _c122
  _c123
  _c124
  _c127
  _c128
  _c13
  _c130
  _c131
  _c132
  _c14
  _c140
  _c141
  _c143
  _c144
  _c147
  _c148
  _c15
  _c150
  _c151
  _c152
  _c16
  _c160
  _c161
  _c162
  _c163
  _c164
  _c167
  _c168
  _c17
  _c171
  _c172
  _c18
  _c180
  _c181
  _c182
  _c183
  _c184
  _c187
  _c188
  _c19
  _c190
  _c191
  _c192
  _c2
  _c20
  _c200
  _c201
  _c202
  _c203
  _c204
  _c205
  _c206
  _c207
  _c208
  _c209
  _c210
  _c211
  _c212
  _c213
  _c214
  _c215
  _c216
  _c217
  _c218
  _c219
  _c22
  _c220
  _c221
  _c222
  _c223
  _c224
  _c225
  _c226
  _c227
  _c228
  _c229
  _c23
  _c230
  _c231
  _c232
  _c233
  _c234
  _c235
  _c236
  _c237
  _c238
  _c239
  _c24
  _c240
  _c241
  _c242
  _c243
  _c244
  _c245
  _c246
  _c247
  _c248
  _c249
  _c250
  _c251
  _c252
  _c253
  _c254
  _c255
  _c256
  _c257
  _c258
  _c259
  _c26
  _c260
  _c261
  _c262
  _c263
  _c264
  _c265
  _c266
  _c267
  _c268
  _c269
  _c270
  _c271
  _c272
  _c273
  _c274
  _c275
  _c276
  _c277
  _c278
  _c279
  _c28
  _c280
  _c281
  _c282
  _c283
  _c284
  _c285
  _c286
  _c287
  _c288
  _c289
  _c290
  _c291
  _c292
  _c293
  _c294
  _c295
  _c296
  _c297
  _c298
  _c299
  _c3
  _c30
  _c300
  _c301
  _c302
  _c303
  _c304
  _c305
  _c306
  _c307
  _c308
  _c309
  _c31
  _c310
  _c311
  _c312
  _c313
  _c314
  _c315
  _c316
  _c317
  _c318
  _c319
  _c320
  _c321
  _c322
  _c323
  _c324
  _c325
  _c326
  _c327
  _c328
  _c329
  _c330
  _c331
  _c332
  _c333
  _c334
  _c335
  _c336
  _c337
  _c338
  _c339
  _c34
  _c340
  _c341
  _c342
  _c343
  _c344
  _c345
  _c35
  _c351
  _c352
  _c353
  _c354
  _c355
  _c356
  _c357
  _c358
  _c359
  _c36
  _c360
  _c361
  _c362
  _c363
  _c364
  _c365
  _c376
  _c377
  _c378
  _c379
  _c38
  _c39
  _c4
  _c40
  _c400
  _c401
  _c402
  _c403
  _c404
  _c405
  _c416
  _c417
  _c418
  _c419
  _c420
  _c426
  _c427
  _c428
  _c429
  _c43
  _c430
  _c431
  _c432
  _c433
  _c434
  _c435
  _c438
  _c439
  _c44
  _c441
  _c443
  _c444
  _c449
  _c451
  _c452
  _c453
  _c454
  _c455
  _c456
  _c457
  _c458
  _c459
  _c460
  _c461
  _c462
  _c463
  _c464
  _c465
  _c466
  _c467
  _c468
  _c469
  _c47
  _c470
  _c471
  _c48
  _c5
  _c51
  _c52
  _c55
  _c56
  _c59
  _c6
  _c60
  _c68
  _c7
  _c72
  _c76
  _c8
  _c80
  _c9 )
